webassembly/ejemplos_dzn/16/folder16_json_65.dzn
TERM = { '.', 's(2)', 's(5)', 's(4)', 'in_1', 'local_0', 'local_1', 'in_6', 'in_2', 'in_3', 'in_4', 's(6)', 's(1)', 's(0)', 's(7)', 'in_7', 'in_5', 's(3)', 'in_0'};
null = '.';
s = 16;
n = 13;
ndeps = 7;
max_registers_sz = 5;
NR = 2;
registers = [|'local_0', 'in_0', |'local_1', 's(4)'|];
dependencies = [|'i32.store_1', 'call[function_index(0)]_3', |'call[function_index(0)]_3', 'call[function_index(1)]_4', |'call[function_index(1)]_4', 'i32.load_6', |'call[function_index(1)]_4', 'i32.load_8', |'i32.load_6', 'i32.store8_10', |'i32.load_8', 'i32.store8_10', |'i32.store8_10', 'i32.load16_s_13'|];
GET_ENUM = { GET1, GET2, GET3, GET4, GET5, GET6, GET7};
SET_ENUM = { SET1, SET2, SET3, SET4, SET5, SET6, SET7};
TEE_ENUM = { TEE1, TEE2, TEE3, TEE4, TEE5, TEE6, TEE7};
N = 9;
OP = { 'call[function_index(0)]_3', 'call[function_index(1)]_4', 'i32.store_1', 'i32.add_0', 'i32.load_6', 'i32.load_8', 'i32.add_1', 'i32.store8_10', 'i32.load16_s_13' };
in_ops = [2, 1, 2, 2, 1, 1, 2, 2, 1 ];
out_ops = [0, 3, 0, 1, 1, 1, 1, 0, 1 ];
in1 = ['in_3', 'in_5', 'in_0', 's(2)', 's(3)', 's(0)', 's(5)', 's(6)', 'in_0' ];
in2 = ['in_4', '.', 'in_1', 's(1)', '.', '.', 'in_6', 'in_7', '.' ];
in3 = ['.', '.', '.', '.', '.', '.', '.', '.', '.' ];
out1 = ['.', 's(2)', '.', 's(3)', 's(4)', 's(5)', 's(6)', '.', 's(7)' ];
out2 = ['.', 's(1)', '.', '.', '.', '.', '.', '.', '.' ];
out3 = ['.', 's(0)', '.', '.', '.', '.', '.', '.', '.' ];
comm = [false, false, false, true, false, false, true, false, false ];
gas = [1, 1, 1, 1, 1, 1, 1, 1, 1 ];
sz = [1, 1, 1, 1, 1, 1, 1, 1, 1 ];
stor = [true, true, true, false, false, false, false, true, false ];
lb = [ 1, 1, 1, 1, 1, 1, 1, 1, 1 ];
ub = [ 16, 16, 16, 16, 16, 16, 16, 16, 16 ];
startstack = [ 'in_0', 'in_1', 'in_2', 'in_3', 'in_4', 'in_5', 'in_6', 'in_7', null, null, null, null, null ];
endstack = [ 'in_0', 's(4)', 's(7)', 's(4)', null, null, null, null, null, null, null, null, null ];
